branch-and-cut/resultados/I080/i080-022.sol
1178
6
5 76
6 76
1 76
4 76
2 76
3 76
